<number of tasks>
250

<cycle time>
1000

<order strength>
0.895


<task times>
1 306
2 100
3 67
4 169
5 105
6 45
7 104
8 210
9 71
10 27
11 178
12 241
13 239
14 126
15 133
16 65
17 110
18 157
19 183
20 268
21 239
22 176
23 125
24 88
25 110
26 154
27 190
28 358
29 29
30 132
31 115
32 265
33 251
34 54
35 88
36 198
37 122
38 64
39 24
40 145
41 64
42 135
43 193
44 93
45 181
46 244
47 176
48 169
49 77
50 168
51 134
52 66
53 167
54 119
55 130
56 104
57 26
58 199
59 216
60 154
61 129
62 232
63 69
64 204
65 105
66 136
67 73
68 227
69 142
70 211
71 50
72 201
73 117
74 209
75 121
76 158
77 256
78 177
79 219
80 117
81 47
82 60
83 146
84 49
85 153
86 40
87 197
88 205
89 151
90 294
91 171
92 91
93 144
94 62
95 118
96 99
97 129
98 205
99 112
100 263
101 133
102 228
103 97
104 73
105 250
106 137
107 144
108 130
109 162
110 91
111 116
112 401
113 107
114 158
115 155
116 96
117 174
118 116
119 158
120 115
121 103
122 89
123 65
124 166
125 285
126 56
127 42
128 97
129 153
130 388
131 91
132 138
133 103
134 190
135 176
136 188
137 158
138 155
139 39
140 58
141 159
142 152
143 194
144 23
145 132
146 42
147 225
148 97
149 231
150 264
151 178
152 194
153 117
154 173
155 214
156 128
157 98
158 187
159 73
160 57
161 194
162 69
163 67
164 173
165 147
166 232
167 167
168 80
169 209
170 159
171 51
172 194
173 161
174 75
175 29
176 171
177 159
178 75
179 106
180 184
181 90
182 128
183 161
184 124
185 186
186 142
187 147
188 60
189 24
190 78
191 156
192 346
193 221
194 104
195 120
196 130
197 158
198 67
199 61
200 25
201 74
202 39
203 79
204 217
205 161
206 46
207 272
208 37
209 107
210 52
211 304
212 157
213 62
214 203
215 82
216 159
217 95
218 129
219 138
220 33
221 43
222 147
223 150
224 92
225 151
226 73
227 234
228 190
229 84
230 394
231 343
232 67
233 132
234 237
235 118
236 210
237 120
238 31
239 217
240 65
241 160
242 178
243 99
244 118
245 242
246 138
247 117
248 218
249 262
250 105

<precedence relations>
1,3
1,4
1,5
1,6
2,3
2,4
2,5
2,6
3,7
3,8
3,9
3,10
4,7
4,8
4,9
4,10
5,7
5,8
5,9
5,10
6,7
6,8
6,9
6,10
7,11
7,12
7,13
7,14
8,11
8,12
8,13
8,14
9,11
9,12
9,13
9,14
10,11
10,12
10,13
10,14
11,15
11,16
11,17
11,18
12,15
12,16
12,17
12,18
13,15
13,16
13,17
13,18
14,15
14,16
14,17
14,18
15,19
15,20
15,21
15,22
16,19
16,20
16,21
16,22
17,19
17,20
17,21
17,22
18,19
18,20
18,21
18,22
19,23
19,24
19,25
20,23
20,24
20,25
21,23
21,24
21,25
22,23
22,24
22,25
23,26
23,27
23,28
23,29
24,26
24,27
24,28
24,29
25,26
25,27
25,28
25,29
26,30
26,31
26,32
27,30
27,31
27,32
28,30
28,31
28,32
29,30
29,31
29,32
30,33
30,34
30,35
31,33
31,34
31,35
32,33
32,34
32,35
33,36
33,37
33,38
33,39
33,40
34,36
34,37
34,38
34,39
34,40
35,36
35,37
35,38
35,39
35,40
36,41
36,42
36,43
37,41
37,42
37,43
38,41
38,42
38,43
39,41
39,42
39,43
40,41
40,42
40,43
41,44
41,45
41,46
42,44
42,45
42,46
43,44
43,45
43,46
44,47
44,48
44,49
45,47
45,48
45,49
46,47
46,48
46,49
47,50
47,51
48,50
48,51
49,50
49,51
50,52
50,53
50,54
50,55
50,56
51,52
51,53
51,54
51,55
51,56
52,57
52,58
52,59
52,60
52,61
52,62
53,57
53,58
53,59
53,60
53,61
53,62
54,57
54,58
54,59
55,66
56,57
56,58
56,61
57,63
58,63
58,64
58,65
59,63
59,64
60,64
60,66
61,63
62,63
63,67
63,68
63,69
64,67
64,68
64,69
64,70
64,71
65,67
65,68
65,69
65,70
65,71
66,67
66,68
66,69
66,70
66,71
67,72
67,73
67,74
67,75
67,76
68,72
68,73
68,74
68,75
68,76
69,72
69,73
69,74
69,75
70,75
70,76
71,72
71,73
71,76
72,77
72,78
72,80
73,77
73,78
73,79
73,80
74,77
74,78
74,79
74,80
75,77
75,78
75,79
76,77
77,81
77,87
77,88
77,89
78,81
78,82
78,83
78,84
79,81
79,83
80,82
80,84
81,85
81,86
81,93
82,85
82,86
82,87
82,88
82,89
83,85
83,86
83,87
83,88
84,85
84,87
84,88
84,89
85,90
85,91
85,92
86,92
87,91
87,92
87,93
88,90
88,93
89,93
90,94
90,95
90,96
91,94
91,95
91,96
92,94
92,96
93,94
93,95
93,96
94,97
94,98
95,97
95,98
96,97
96,98
97,99
97,100
97,101
97,102
97,103
97,104
97,105
98,102
98,103
98,104
98,105
99,106
99,107
100,106
100,107
100,108
100,109
101,109
102,110
102,116
103,114
104,106
104,107
104,108
104,109
104,111
105,106
105,107
106,112
106,113
106,114
106,118
107,116
107,133
107,150
108,112
108,116
108,118
109,112
109,113
109,114
109,115
110,117
110,134
111,133
111,139
111,143
112,119
112,120
112,121
113,119
114,119
114,120
114,121
115,119
115,121
117,167
117,194
118,223
119,123
120,164
121,122
121,124
121,127
122,125
122,126
122,128
123,125
123,127
123,130
124,125
124,129
125,133
125,135
126,132
126,136
126,151
127,150
128,134
128,144
129,131
129,132
130,131
130,143
130,157
131,156
131,177
132,137
132,139
133,137
133,138
133,160
134,137
134,140
134,141
134,145
135,137
135,138
135,170
136,137
137,146
137,163
137,164
137,169
138,144
138,155
139,142
139,145
140,143
140,173
141,175
141,186
141,192
141,196
142,147
142,148
143,149
143,151
144,164
144,173
145,147
145,148
145,149
145,150
146,197
147,152
147,175
148,154
148,165
149,152
149,153
150,178
151,164
153,156
153,158
153,159
154,155
154,157
154,160
155,182
156,165
157,161
157,162
158,163
159,161
159,171
160,162
160,164
161,182
161,192
162,168
162,173
163,166
163,167
164,166
164,168
164,171
164,172
165,167
165,169
165,170
166,175
167,206
167,215
168,177
169,174
169,178
170,174
171,174
171,178
172,176
173,174
174,179
174,180
174,181
174,182
174,183
175,179
175,180
175,181
175,182
176,179
176,196
177,179
177,181
178,182
178,183
179,185
179,189
179,190
179,201
180,184
181,184
181,185
181,189
182,184
183,186
183,187
183,188
183,189
183,190
184,194
185,191
185,217
186,194
187,191
187,192
187,200
188,196
188,199
188,208
189,194
189,195
190,193
190,242
191,199
192,201
192,209
193,200
193,226
194,197
194,198
194,202
195,207
195,214
196,213
197,204
198,203
199,203
201,244
202,207
202,238
203,205
203,206
203,207
203,209
203,238
204,208
204,209
205,212
206,211
206,213
207,236
208,210
209,249
210,217
210,218
211,229
212,214
212,215
212,219
212,226
212,235
213,216
214,240
215,222
216,223
216,244
216,246
217,220
217,221
217,223
219,222
219,237
220,224
220,225
220,233
221,224
221,226
222,225
222,227
222,248
223,227
223,242
223,245
224,228
224,229
224,230
224,231
224,245
225,229
225,231
226,232
228,235
229,234
229,243
230,238
232,233
232,236
232,237
232,244
233,239
233,243
234,244
236,240
237,239
237,241
237,247
238,242
238,244
239,245
239,246
242,247
245,249
246,248
246,250

<end>
